! Opt UKS B3LYP D3BJ def2-SVP TRAH TightSCF TIGHTOPT    
! CPCM
! SMD(Water)

%pal
  nprocs 4
end

%cpcm
  SMDSolvent "Water"  # for more complex biological media
end

%scf    # Confirme l'utilisation d'un formalisme de spin non restreint
  HFTyp UKS
  #SCF_ALGORITHM DIIS_TRAH Utilise une combinaison de DIIS et TRAH (Trust Radius Augmented Hessian) pour garantir la convergence
  MaxIter 500
  ConvForce 1e-6   #Définit un seuil de convergence 
end

%geom
  MaxStep 0.2  # Limite la taille maximale de déplacement des atomes  pour éviter que la géométrie ne se déforme de manière irréaliste pendant l'optimisation
  Trust 0.3    # Définit le rayon de confiance initial de l'algorithme à 0,3, contrôlant la zone dans laquelle ORCA estime que son approximation de la surface d'énergie est fiable
end

* xyz 1 3  # Charge 0, Multiplicity 3 (Triplet)
P          -6.34504701206498     10.89278100044507      1.43050639508251
  C          -7.65476758329342     13.82807010090515      4.73536479483681
  C          -7.36194041416479     14.29229109556853      3.44807853988861
  C          -6.97988125761365     13.39418897510411      2.45097798484724
  C          -6.90708993457700     12.01930696563768      2.73924574951425
  C          -7.55806064086247     12.46464858438503      5.02750785778122
  C          -7.18327585779514     11.55620988923853      4.03404936878546
  C          -8.51843328391593     11.83672045370093     -0.11810331715709
  C          -9.39312146622854     11.74992865041882     -1.20421339595399
  C          -9.28214193227998     10.69556337842464     -2.11560830982246
  C          -8.29682428536955      9.71762097244880     -1.94117343840986
  C          -7.42334912677985      9.79148650169510     -0.85548265315485
  C          -7.52956887430282     10.85772491513243      0.05415266035938
  C          -3.24777122625484     12.15291172420144     -0.93920293159523
  C          -4.48382635262277     11.64775709165360     -0.52751033502045
  C          -4.78671767758761     11.59552520232053      0.83990055713772
  C          -2.32300900729909     12.60404739861581      0.00726672222684
  C          -2.63336946011588     12.56145293039348      1.37179789779403
  C          -3.86457369607709     12.06063782944045      1.79284513000435
  H          -8.72090139115544      6.04147273789146      4.04991161494881
  H          -7.94893285516210     14.53406026531653      5.51566959258134
  H          -7.42208098419576     15.35895025591372      3.22068620876256
  H          -7.77042460428663     12.10175434473473      6.03564998200456
  H          -7.09915458864292     10.49601357835822      4.27203209819713
  H          -6.72668470454508     13.76546020770835      1.45568971941231
  H          -5.19994711564679     11.29266959638491     -1.26973617029175
  H          -3.00920925360497     12.19413368317020     -2.00426163018389
  H          -1.35718302986903     12.99709221863910     -0.31917407424323
  H          -1.91288540375092     12.91933826718583      2.11058635049543
  H          -4.10433112563324     12.02248644283930      2.85738731799552
  H          -6.66321983893309      9.02004137162366     -0.71097541592283
  H          -8.21226963742449      8.88937468330152     -2.64835861733404
  H          -9.96992306590021     10.63171842307363     -2.96223994399327
  H         -10.16737261008260     12.50946750640628     -1.33398827641136
  H          -8.62348824037535     12.65701138115750      0.59240134950665
  C          -6.16481995285986      9.23092545486164      2.05054959195969
  C          -7.35772344575581      8.59888921383331      2.53936954393642
  C          -8.72114109642479      8.97576429884750      2.48243344067363
  C          -9.46365644758846      7.94862645175075      3.10622550151580
  C          -8.55139803619017      6.98169804876002      3.52746861804675
  C          -4.92554578156826      8.50983877582130      2.06756304862526
  C          -3.66215176697937      8.71517727963638      1.45529588053327
  C          -2.85672728382698      7.59971514948210      1.76900588702509
  C          -3.62696375518393      6.74484918189273      2.55544598295522
  N          -7.28677190283584      7.37348646422770      3.18477173525590
  N          -4.86810862866734      7.28927214063754      2.73244056861364
  B          -5.97810323403166      6.69700516398595      3.61578626811073
  F          -5.71724316072200      6.95596394825686      4.98112480306987
  F          -6.05505867419297      5.30691388070546      3.44069006174402
  H          -1.83015709408907      7.42783509348276      1.44838930134798
  H          -3.37231284017004      5.78408102467591      2.99997732734685
  H          -3.37707923129939      9.55015974354292      0.82587582775864
  H          -9.11907036574723      9.87995725445966      2.02871085773605
  H         -10.54522347845247      7.90661558610377      3.22671790987667
*
# Notes:
# - Triplet optimization: multiplicity 3 in the geometry read line above
# - Adjust functional/basis as required

# Opt : Lance une optimisation de géométrie, cherchant la structure la plus stable (minimum d'énergie) de la molécule
# UKS : Utilise la méthode Unrestricted Kohn-Sham
# D3BJ : Applique la correction de dispersion de Grimme avec l'amortissement de Becke-Johnson, 
# TightSCF : Impose des critères de convergence très stricts pour le cycle SCF (énergie et densité) avant de passer à l'étape suivante
# TIGHTOPT : Définit des tolérances de convergence plus rigoureuses pour la géométrie (forces et déplacements atomiques) que l'option standard


