! Opt RKS B3LYP D3BJ def2-SVP TightSCF TIGHTOPT SlowConv
! CPCM
! SMD(Water)

%pal
  nprocs 4
end

%cpcm
  SMDSolvent "Water"  # for more complex biological media
end

%scf
  HFTyp UKS
  CNVDIIS true   # Active l'accélération DIIS (activé par défaut)
  AutoTRAH true # Active le basculement automatique vers l'algorithme TRAH 
  MaxIter 500
  ConvForce 1e-6
  LevelShift 0.2      # Shift (perturbation mineure des orbitales)
  CNVDamp true   # Active l'amortissement statique 
  DampFac 0.7    # Amortissement du cycle SCF (ici pour 70%)
end

%geom
  MaxStep 0.2
  Trust 0.3
  
end

# Stratégie de convergence robuste pour les états excités
# Utiliser un guess excité pré-généré si disponible : %moinp "S0_water_opt.gbw"

* xyz 0 1
  C          -1.72057699524250      4.92158739619955     -0.18053428871618
  C          -2.90048189279880      4.18883923706906     -0.06593476514203
  C          -4.26013066816487      4.59952997051234     -0.06003256803592
  C          -5.03213339795090      3.45089213763391      0.10833742910554
  C          -4.13322225818091      2.36485931383112      0.19992778853212
  C          -0.47425102772549      4.29975446769320     -0.12881994187101
  C           0.84036545976753      4.83298130782435     -0.19702679170060
  C           1.72226511836236      3.76022073896731     -0.07378485822461
  C           0.93283274974646      2.59694015273861      0.06547007630454
  N          -2.86590147645420      2.80237101608321      0.09588661703373
  N          -0.37300554892698      2.91645305797994      0.03287535581845
  B          -1.57560548902974      1.93089860028012      0.10629477389044
  F          -1.51462171709805      1.17564448665996      1.27710633920356
  F          -1.56419195450983      1.07929330006695     -1.00130115027935
  H           2.81020681150625      3.79024796143019     -0.07911284744465
  H           1.25849760511228      1.56350349282119      0.18373503553358
  H           1.07949764362280      5.88831077075851     -0.31919094917639
  H          -4.60151751839876      5.62830409637877     -0.16449598343299
  H          -6.11688725777485      3.38139278617429      0.16355496675898
  H          -4.35538573305804      1.30617409253793      0.33363960457223
  H          -1.77365945280371      6.00482061635949     -0.30453584272944
*
