! Opt RKS B3LYP D3BJ def2-SVP TightSCF TIGHTOPT SlowConv
! CPCM
! SMD(Water)

%pal
  nprocs 4
end

%cpcm
  SMDSolvent "Water"  # for more complex biological media
end

%scf
  HFTyp UKS
  CNVDIIS true   # Active l'accélération DIIS (activé par défaut)
  AutoTRAH true # Active le basculement automatique vers l'algorithme TRAH 
  MaxIter 500
  ConvForce 1e-6
  LevelShift 0.2      # Shift (perturbation mineure des orbitales)
  CNVDamp true   # Active l'amortissement statique 
  DampFac 0.7    # Amortissement du cycle SCF (ici pour 70%)
end

%geom
  MaxStep 0.2
  Trust 0.3
  
end

# Stratégie de convergence robuste pour les états excités
# Utiliser un guess excité pré-généré si disponible : %moinp "S0_water_opt.gbw"

* xyz 1 1
 P          -6.30832735773155     10.96812283939130      1.44316682457672
  C          -7.65951753224581     13.84498815680210      4.75922666185441
  C          -7.36716541336424     14.32722177964735      3.47859097331445
  C          -6.95594909436459     13.44880350219867      2.47681025940053
  C          -6.85136364030526     12.07359511461335      2.75934872369191
  C          -7.53599002077155     12.48205872514655      5.04254344650716
  C          -7.13221237240895     11.59007570248565      4.04705857820963
  C          -8.45512247262368     11.85775704919795     -0.12444002666920
  C          -9.34775787875387     11.74675503098705     -1.19284201246747
  C          -9.29502541311905     10.63838358488724     -2.04276238021306
  C          -8.34969215313942      9.63043387959134     -1.82507021510103
  C          -7.45652892881564      9.72628425807827     -0.75804102399482
  C          -7.50717887477972     10.84649912460243      0.09047507077034
  C          -3.06566268397955     11.55171455479095     -0.95890228451544
  C          -4.30210718176255     11.12562200599550     -0.47418289068973
  C          -4.74309523354029     11.57473134788340      0.78135086355260
  C          -2.27630501621318     12.42423613295377     -0.20184771736399
  C          -2.72234676926217     12.87679884828904      1.04393376594352
  C          -3.95522380766480     12.45409974631100      1.54267035724301
  H          -8.87583887010918      5.91681197610351      3.48829371421711
  H          -7.97803429165782     14.53735649706508      5.54191803211594
  H          -7.45327024301356     15.39331386645229      3.25839239823036
  H          -7.75155836452569     12.10580948332186      6.04477036700056
  H          -7.03384823145150     10.53051741631892      4.28355247171177
  H          -6.70709495181665     13.83351180744853      1.48603783693025
  H          -4.91136883106648     10.44570447318146     -1.07071233722578
  H          -2.71895720674065     11.20145327489692     -1.93335485786447
  H          -1.30919340783116     12.75573596580880     -0.58697225961719
  H          -2.10779159126493     13.55976219522858      1.63417576664190
  H          -4.28868036702677     12.79395795164332      2.52362029879313
  H          -6.73455203678567      8.92589073247257     -0.58432493695001
  H          -8.31111409383204      8.75966312105598     -2.48307645748590
  H          -9.99776872835493     10.55567372394972     -2.87515875464843
  H         -10.09062742578106     12.53058483559344     -1.35544833504407
  H          -8.51613804040234     12.72080330300827      0.53861098983044
  C          -6.17416378072670      9.26266589131802      2.12214509285278
  C          -7.38462811096597      8.59903135779433      2.39682933744558
  C          -8.74519794521481      9.04013317995796      2.38028610965729
  C          -9.52461956774522      7.98766723952899      2.84277215457954
  C          -8.64415412345982      6.91692885838970      3.12250682786003
  C          -4.93783796868226      8.64781633966139      2.37469008866435
  C          -3.58051965668444      9.10680689820027      2.33849122029515
  C          -2.77918959572244      8.06621440420631      2.78506179480312
  C          -3.63830828121551      6.98150896035835      3.07698640881716
  N          -7.37965198346695      7.28255188014253      2.86207254765361
  N          -4.91132116987059      7.32559129084877      2.83818398879795
  B          -6.13055662224142      6.36579931650408      2.89713120005595
  F          -6.10525661591584      5.61531370925996      4.06483492409412
  F          -6.12543869096137      5.52294467789308      1.78311982384370
  H          -1.69736442635907      8.07150338324238      2.89964916695516
  H          -3.38438499035550      5.98482791164296      3.43759088776030
  H          -3.24256998326305     10.09367708105750      2.04702427706357
  H          -9.09802734034009     10.02537303950075      2.08810431853061
  H         -10.60443433530244      7.97560535148987      2.97463045838477
*
