! RI-ADC(2) def2-SVP AutoAux FrozenCore
! CPCM(Water)

%pal
  nprocs 8
end

%cpcm
  epsilon 80.0
end

%adc
  n_exc_states 10
  do_triplets true
  DoNTOs true
end

* xyzfile 0 1 S0_water_opt.xyz

# Notes:
# - Use the S0 optimized geometry in water (S0_water_opt.xyz)
# - Output will contain vertical excitation energies and NTOs
