! UKS PBE0 D3BJ def2-SVP ZORA RIJCOSX AutoAux TightSCF
! CPCM(Water)

%pal
  nprocs 8
end

%cpcm
  epsilon 80.0
end

%scf
  HFTyp UKS
  SCF_ALGORITHM DIIS_TRAH
  MaxIter 500
  ConvForce 1e-6
end

# ΔDFT+SOC perturbatif (recommandé) :
# Workflow :
# 1) Optimiser S1 et T1 avec ΔUKS/ΔROKS (S1: S1_water_opt.gbw/S1_water_opt.xyz, T1: T1_water_opt.gbw/T1_water_opt.xyz)
# 2) Lancer ΔDFT+SOC sur la géométrie S0 pour estimer les constantes de couplage
# 3) Avantages : 10× plus rapide que NEVPT2, cohérent avec la chaîne ΔDFT
# 4) Temps estimé : 30–60 min par molécule

%tddft
  dosoc true    # Active le SOC perturbatif sur la base des états ΔDFT/UKS
end

* xyzfile 0 1 S0_water_opt.xyz

# Output: Spin-Orbit Coupling elements (chercher "Spin-Orbit Coupling Matrix")
# Valeurs typiques : 1–10 cm⁻¹ (sans atome lourd), 50–200 cm⁻¹ (avec I)
# Note: Pour validation ponctuelle, réserver FIC-NEVPT2/CASSCF si ressources disponibles
