! Opt RKS B3LYP D3BJ def2-SVP TightSCF TIGHTOPT
! CPCM(Water)

%pal
  nprocs 8
end

%cpcm
  epsilon 80.0
end

%scf
  MaxIter 500
  ConvForce 1e-6
end

%geom
  MaxStep 0.2
  Trust 0.3
end

* xyzfile 0 1 S0_gas_opt.xyz

# Notes:
# - This performs the S0 optimization in implicit water (CPCM)
# - Provide S0_gas_opt.xyz or modify the xyzfile path as needed
