! Opt UKS PBE0 D3BJ def2-SVP TightSCF TIGHTOPT SlowConv
! CPCM(Water)

%pal
  nprocs 8
end

%cpcm
  epsilon 80.0
end

%scf
  HFTyp UKS
  SCF_ALGORITHM DIIS_TRAH
  MaxIter 500
  ConvForce 1e-6
  LevelShift 0.2
  DampPercentage 40
end

%geom
  MaxStep 0.2
  Trust 0.3
end

# Use a pre-generated excited guess if available (example):
# %moinp "S0_water_opt.gbw"

* xyzfile 0 1 S0_water_opt.xyz

# Notes:
# - This is a ΔSCF-style workflow using UKS to target an excited state.
# - If you prefer ΔROKS, change HFTyp to ROKS (check ORCA manual for syntax).
# - Convergence can be difficult; consult troubleshooting strategies in the guide.
