! xtb2 Opt

%maxcore 10000          # Alloue 10000 Mo de RAM pour le calcul

* xyz 1 1               # Début des coordonnées : charge 0, multiplicité 1 (singulet)
P     -6.3756572725   10.9616146996    0.9252157322
C     -7.4810012725   15.5243186996    2.1080617322
C     -7.2120472725   15.1228516996    0.6610947322
C     -6.3316832725   13.8806856996    0.5760737322
C     -6.8175022725   12.7184726996    1.4664187322
C     -8.1785692725   14.3819546996    2.8455577322
C     -7.3348622725   13.1082616996    2.8618037322
C     -9.1729722725   11.8149066996    0.0428297322
C    -10.6121162725   11.7990426996    0.5732757322
C    -11.2235432725   10.4013856996    0.4724877322
C    -10.3082332725    9.3444566996    1.0880087322
C     -8.8914782725    9.4588996996    0.5207377322
C     -8.2866692725   10.8264876996    0.8546917322
C     -2.5823482725   12.6844706996    1.9197907322
C     -3.6442642725   12.0050976996    1.0606497322
C     -4.8960062725   11.6520136996    1.8760707322
C     -2.1591452725   11.7781096996    3.0789637322
C     -3.3112852725   11.1628056996    3.8889507322
C     -4.7201982725   11.4945786996    3.3991847322
H     -7.9054982725    5.2015576996    1.2894827322
H     -8.1263142725   16.4273456996    2.1203847322
H     -6.7311412725   15.9543496996    0.1045527322
H     -8.4061662725   14.6866746996    3.8879247322
H     -7.9138342725   12.2826856996    3.3242467322
H     -6.2616002725   13.5689306996   -0.4874972678
H     -3.8848172725   12.6190216996    0.1700947322
H     -1.6988122725   12.9840536996    1.3187537322
H     -1.4987252725   10.9716056996    2.6938917322
H     -3.1805922725   10.0631906996    3.9761397322
H     -5.5316242725   10.9669226996    3.9389727322
H     -8.8080982725    9.1775996996   -0.5503082678
H    -10.7160742725    8.3230326996    0.9458477322
H    -12.2188722725   10.3816436996    0.9643427322
H    -11.2517272725   12.5148156996    0.0153267322
H     -8.8829802725   12.8787236996    0.0108437322
C     -5.8500802725    9.2504376996    1.6043387322
C     -6.8027222725    8.0779506996    1.8292157322
C     -7.4723572725    7.9118226996    3.1731967322
C     -8.3325012725    6.7232716996    2.8163347322
C     -7.3798672725    5.8607096996    2.0082297322
C     -4.3863852725    8.7775296996    1.6593137322
C     -3.4316792725    8.9570896996    0.4911797322
C     -2.2041152725    8.1960666996    0.9617737322
C     -2.6891282725    7.3746246996    2.1472397322
N     -6.4211222725    6.7450376996    1.3503867322
N     -4.1368872725    7.4717296996    2.2638387322
B     -4.9451802725    6.3136416996    1.6059967322
F     -4.8207252725    5.1389766996    2.4637157322
F     -4.3905372725    5.9415566996    0.3092117322
H     -1.4268532725    8.8896086996    1.3428257322
H     -2.1900782725    6.4278846996    2.4307517322
H     -3.8419992725    8.4567966996   -0.4095292678
H     -8.0815812725    8.7900876996    3.4636037322
H     -8.7997712725    6.1992996996    3.6750297322
*
