! xtb2 Opt

%maxcore 10000          # Alloue 10000 Mo de RAM pour le calcul

* xyz 0 1               # Début des coordonnées : charge 0, multiplicité 1 (singulet)
P     -1.7356091626    1.4330207597    3.1357526045
C     -2.8232163751    5.9297973350    3.9233952053
C     -2.3741752611    5.5647336299    2.6157285099
C     -1.7554766496    4.2790721018    2.5199245084
C     -2.0226339867    3.1389510280    3.3406883965
C     -3.3049695677    4.8489254726    4.7262079607
C     -2.6459295370    3.5928536479    4.5450037384
C     -4.3903585770    2.2146096316    2.1163550003
C     -5.8026507172    2.2124847168    2.3407274174
C     -6.4099323267    0.9220821843    2.4455001681
C     -5.5226640368   -0.1290030376    2.8365136923
C     -4.1854741400    0.1428914422    2.4088464219
C     -3.3873866080    1.3147562596    2.5951429349
C      2.1314544189    3.0354050560    3.7646327002
C      0.9675763033    2.5535680793    3.0877822447
C     -0.2123604610    2.0467062412    3.7168659259
C      2.4648981198    2.2416155116    4.9063930314
C      1.3723433916    1.6749243683    5.6344617031
C      0.0628050166    1.9187235549    5.1142939767
H     -3.1516793935   -4.2878052621    3.1909456482
H     -3.3570813346    6.8692586811    3.9961634593
H     -2.0242132452    6.3940413066    2.0135237654
H     -3.6573784823    5.1574450741    5.7026885565
H     -3.1302061775    2.8431017891    5.1583769106
H     -1.5346409665    4.0831546989    1.4779420755
H      0.8715086873    3.0528911604    2.1315737672
H      2.9788451839    3.4520839694    3.2343552434
H      3.1974288940    1.5081154858    4.5929102542
H      1.5463872197    0.6270659850    5.8456284900
H     -0.7077882119    1.5095023425    5.7558649408
H     -4.0827038401   -0.3038987305    1.4276754204
H     -5.9541938221   -1.1223038297    2.8303346717
H     -7.4275973307    0.8710567371    2.8124278954
H     -6.4737135622    2.9553204455    1.9274862016
H     -4.1785718805    3.2538436623    1.8971996885
C     -1.1405144592   -0.1812947040    3.4085878977
C     -1.9152209401   -1.3322248289    3.7551657456
C     -2.7445844289   -1.5937739837    4.8903539119
C     -3.5106751521   -2.7882028960    4.7133230662
C     -2.6785901273   -3.5922339431    3.8730373192
C      0.1795655559   -0.7299733950    3.4441461876
C      1.2372439561   -0.6530614807    2.4848228683
C      2.4534011343   -1.2832200239    2.8956448549
C      2.0369791712   -2.1297595852    3.9702873199
N     -1.7566990037   -2.6715019436    3.3001732763
N      0.6328494393   -1.9221785609    4.0758053940
B     -0.2098186159   -3.1980086890    3.4820658963
F     -0.0853629371   -4.3726744159    4.3397847598
F      0.3448244625   -3.5700938368    2.1852808534
H      3.2770833308   -0.6507915420    3.2030057583
H      2.5237438650   -3.0414444305    4.2939896501
H      0.9174900507   -1.0264450811    1.5198195912
H     -3.3094304114   -0.7758094429    5.3202233790
H     -4.0434104973   -3.2887425701    5.5124115838
*
