# ----------------------------------------------------
# OPTIMISATION DU PROTOTYPE 1 : BODIPY de base
# ----------------------------------------------------
! OPT GFN2-xTB

# Définition des coordonnées du BODIPY de base

*xyz 1 1 Bod_xtb_opt.xyz

   P          -6.28611948891859     10.93314412133236      1.51967969849319
  C          -7.68619242244252     13.92278944851181      4.67771429325804
  C          -7.30770459603206     14.35454203069918      3.41473925965805
  C          -6.87701763928332     13.44044933297742      2.47160873942070
  C          -6.83754655779638     12.08260228841010      2.79490261824241
  C          -7.62811823891723     12.57675971336923      5.00269494482226
  C          -7.20441974691698     11.64994717115242      4.06583935189945
  C          -8.38660569153797     11.79341475978665     -0.11101684996888
  C          -9.25277470668873     11.65759951205120     -1.18197531307739
  C          -9.20221432048631     10.52585353386994     -1.98007153462831
  C          -8.28811308898418      9.51916066424503     -1.70780162249663
  C          -7.41918268379478      9.64132855078854     -0.63951398819283
  C          -7.46799293105286     10.78430258464747      0.15877680933610
  C          -3.19065330517426     11.71138304297219     -0.99541394115834
  C          -4.37313711370965     11.22218985040024     -0.46906331630555
  C          -4.73935175973278     11.56430942593553      0.83023742329876
  C          -2.37998058356296     12.54046255431494     -0.23586800929024
  C          -2.74801111873724     12.88481655632303      1.05657823781027
  C          -3.92525727991053     12.39977940913938      1.59577150523143
  H          -8.91264684240239      5.94531013096698      3.36384797155302
  H          -8.02074855897034     14.63914982042331      5.41152070527840
  H          -7.34329513326604     15.40402872221188      3.16682743307763
  H          -7.91129787335968     12.24519111807062      5.98940275615932
  H          -7.15652782407121     10.60159272337789      4.32123731462349
  H          -6.55715848298270     13.77344125434397      1.49285949300849
  H          -5.00990174830211     10.58398268659574     -1.06432326316493
  H          -2.90412814114995     11.44744943075503     -2.00134749927701
  H          -1.46073483631367     12.92208996723006     -0.65170920881546
  H          -2.11679884288421     13.53155906642212      1.64600769289187
  H          -4.21079508684621     12.66024433093813      2.60560599651722
  H          -6.71862279400111      8.84765486608953     -0.41609956639088
  H          -8.25409230373176      8.63478289541714     -2.32468609674076
  H          -9.88030476953019     10.42493171543082     -2.81287213539852
  H          -9.96995718397065     12.43616659401523     -1.39047504301761
  H          -8.43661685973574     12.66985122617322      0.51911433212499
  C          -6.14471627064385      9.25530564396318      2.19732586985356
  C          -7.35803543399646      8.60848539841227      2.46032382791766
  C          -8.69186364884753      9.09919106787854      2.48171057925063
  C          -9.49578213898602      8.05657685218254      2.87453907622910
  C          -8.65625604217016      6.94544340284132      3.07076319628237
  C          -4.93042256389849      8.60459109819446      2.40984364679150
  C          -3.57995739569417      9.05392824817422      2.39798949927861
  C          -2.79890032558709      7.98826530827360      2.76851946942776
  C          -3.66501888284535      6.90080709899268      2.98585423800836
  N          -7.39621439862569      7.28309406882333      2.83628254838536
  N          -4.91881225233447      7.27310296260028      2.78537417186052
  B          -6.16423842445174      6.33812712514538      2.76484066942418
  F          -6.14172066431110      5.48620297047843      3.82159144122948
  F          -6.19142288968859      5.67948417040774      1.55993987202305
  H          -1.73317986507775      7.96933673882044      2.87594444092184
  H          -3.42927057096073      5.89318528278998      3.27162086442461
  H          -3.24484079395326     10.04550372369694      2.17277741727915
  H          -8.99717383566349     10.10462229651418      2.26034596601783
  H         -10.55818676206682      8.06917822082205      3.01120555541266
*
